<number of tasks>
50

<cycle time>
1000

<order strength>
0.198


<task times>
1 463
2 226
3 542
4 522
5 266
6 276
7 252
8 46
9 127
10 271
11 204
12 325
13 64
14 36
15 159
16 324
17 203
18 571
19 60
20 202
21 264
22 482
23 483
24 251
25 23
26 501
27 74
28 48
29 425
30 265
31 37
32 36
33 298
34 340
35 506
36 187
37 48
38 166
39 592
40 262
41 23
42 25
43 82
44 474
45 62
46 432
47 48
48 86
49 246
50 203

<precedence relations>
1,10
2,11
3,12
4,13
5,9
5,21
5,26
6,14
7,15
8,16
8,40
9,17
10,20
11,19
12,21
13,20
14,18
14,22
14,24
14,25
14,29
15,24
15,25
16,23
16,26
17,29
18,27
19,28
22,31
23,29
23,46
24,49
25,30
26,44
27,32
28,33
29,42
30,34
30,36
30,40
31,35
32,37
33,38
34,50
35,39
35,40
36,39
37,42
38,43
39,41
39,44
40,45
40,46
41,47
44,48
44,49
44,50

<end>
